RT is False
Default write of storage_offers_DA.csv just to have a file (but constraint should be inactive)
Reading model...
...model read.
creating competitive generators file...
...competitive generators recorded.
Loading data...
.. day-ahead data read.
Compiling instance...
...instance created.
Creating Offer Mitigation (model will solve as dispatch if TRUE)...
NOTE: storage offers will not be mitigated
...storage offer mitigation file created
Converting model to MPEC...
...converted
NOTE: initial MIP solve with only storage competitive to get feasible solution
Solving...

Welcome to IBM(R) ILOG(R) CPLEX(R) Interactive Optimizer 12.10.0.0
  with Simplex, Mixed Integer & Barrier Optimizers
5725-A06 5725-A29 5724-Y48 5724-Y49 5724-Y54 5724-Y55 5655-Y21
Copyright IBM Corp. 1988, 2019.  All Rights Reserved.

Type 'help' for a list of available commands.
Type 'help' followed by a command name for more
information on commands.

CPLEX> Logfile 'cplex.log' closed.
Logfile 'C:\Users\wenmi\Desktop\competitiveMPEC\logs\tmp753cr109.cplex.log' open.
CPLEX> New value for parallel optimization mode: -1
CPLEX> New value for mixed integer optimality gap tolerance: 0.01
CPLEX> New value for integrality tolerance: 1e-09
CPLEX> New value for feasibility tolerance: 0.01
CPLEX> New value for deterministic time limit in ticks: 75000
CPLEX> Problem 'C:\Users\wenmi\Desktop\competitiveMPEC\logs\tmp7k2eswaf.pyomo.lp' read.
Read time = 0.16 sec. (14.51 ticks)
CPLEX> Problem name         : C:\Users\wenmi\Desktop\competitiveMPEC\logs\tmp7k2eswaf.pyomo.lp
Objective sense      : Maximize
Variables            :   53805  [Nneg: 1,  Box: 22000,  Free: 4464,
                                 Binary: 27340]
Objective nonzeros   :    8979
Linear constraints   :  123205  [Less: 41346,  Greater: 59096,  Equal: 22763]
  Nonzeros           :  291800
  RHS nonzeros       :   67490

Variables            : Min LB: -5000.000        Max UB: 1000000.       
Objective nonzeros   : Min   : 0.1000000        Max   : 846.6000       
Linear constraints   :
  Nonzeros           : Min   : 0.1000000        Max   : 1000000.       
  RHS nonzeros       : Min   : 0.1000000        Max   : 1000000.       
CPLEX> Version identifier: 12.10.0.0 | 2019-11-26 | 843d4de2ae
CPXPARAM_Parallel                                -1
CPXPARAM_Simplex_Tolerances_Feasibility          0.01
CPXPARAM_DetTimeLimit                            75000
CPXPARAM_MIP_Tolerances_MIPGap                   0.01
CPXPARAM_MIP_Tolerances_Integrality              1.0000000000000001e-09
Tried aggregator 3 times.
MIP Presolve eliminated 88615 rows and 18915 columns.
MIP Presolve added 3401 rows and 0 columns.
MIP Presolve modified 24906 coefficients.
Aggregator did 13015 substitutions.
Reduced MIP has 24976 rows, 21319 columns, and 71254 nonzeros.
Reduced MIP has 8419 binaries, 0 generals, 0 SOSs, and 0 indicators.
Presolve time = 0.17 sec. (171.40 ticks)
Probing fixed 376 vars, tightened 2833 bounds.
Probing time = 0.89 sec. (869.53 ticks)
Tried aggregator 2 times.
Detecting symmetries...
MIP Presolve eliminated 851 rows and 753 columns.
MIP Presolve modified 2191 coefficients.
Aggregator did 42 substitutions.
Reduced MIP has 24083 rows, 20524 columns, and 68668 nonzeros.
Reduced MIP has 8043 binaries, 0 generals, 0 SOSs, and 0 indicators.
Presolve time = 0.06 sec. (71.57 ticks)
Probing time = 0.02 sec. (16.12 ticks)
Clique table members: 6413.
MIP emphasis: balance optimality and feasibility.
MIP search method: dynamic search.
Parallel mode: opportunistic, using up to 16 threads.
Root relaxation solution time = 0.22 sec. (213.97 ticks)

        Nodes                                         Cuts/
   Node  Left     Objective  IInf  Best Integer    Best Bound    ItCnt     Gap

      0     0     3129.7231  1565                   3129.7231     5394         
      0     0     3129.7231   538                   Cuts: 500     5646         
      0     0     3124.1517   469                   Cuts: 125     5749         
      0     0     3124.1517   419                   Cuts: 116     5801         
      0     0     3124.1517   393                    Cuts: 85     5850         
      0     0     3124.1517   354                    Cuts: 78     5894         
      0     0     3124.1517   332                    Cuts: 60     5922         
      0     0     3124.1517   311                    Cuts: 54     5939         
      0     0     3124.1517   306                    Cuts: 24     5947         
*     0+    0                         3097.3930     3124.1517             0.86%

Clique cuts applied:  5
Implied bound cuts applied:  9
Flow cuts applied:  376
Mixed integer rounding cuts applied:  1
Gomory fractional cuts applied:  12

Root node processing (before b&c):
  Real time             =    6.92 sec. (5860.88 ticks)
Parallel b&c, 16 threads:
  Real time             =    0.00 sec. (0.00 ticks)
  Sync time (average)   =    0.00 sec.
  Wait time (average)   =    0.00 sec.
                          ------------
Total (root+branch&cut) =    6.92 sec. (5860.88 ticks)

Solution pool: 1 solution saved.

MIP - Integer optimal, tolerance (0.01/1e-06):  Objective =  3.0973929793e+03
Current MIP best bound =  3.1195351069e+03 (gap = 22.1421, 0.71%)
Solution time =    6.92 sec.  Iterations = 5947  Nodes = 0 (1)
Deterministic time = 5861.04 ticks  (846.73 ticks/sec)

CPLEX> Incumbent solution written to file 'C:\Users\wenmi\Desktop\competitiveMPEC\logs\tmpnv93qs3k.cplex.sol'.
CPLEX> NOTE: no warmstart specified for MIP iteration, default behavior is true
NOTE: resolving with all competitive generators using storage-only solution to warmstart
Solving...

Welcome to IBM(R) ILOG(R) CPLEX(R) Interactive Optimizer 12.10.0.0
  with Simplex, Mixed Integer & Barrier Optimizers
5725-A06 5725-A29 5724-Y48 5724-Y49 5724-Y54 5724-Y55 5655-Y21
Copyright IBM Corp. 1988, 2019.  All Rights Reserved.

Type 'help' for a list of available commands.
Type 'help' followed by a command name for more
information on commands.

CPLEX> Logfile 'cplex.log' closed.
Logfile 'C:\Users\wenmi\Desktop\competitiveMPEC\logs\tmpooqxa9bl.cplex.log' open.
CPLEX> New value for parallel optimization mode: -1
CPLEX> New value for mixed integer optimality gap tolerance: 0.01
CPLEX> New value for integrality tolerance: 1e-09
CPLEX> New value for feasibility tolerance: 0.01
CPLEX> New value for deterministic time limit in ticks: 75000
CPLEX> Problem 'C:\Users\wenmi\Desktop\competitiveMPEC\logs\tmpqamxd_c_.pyomo.lp' read.
Read time = 0.16 sec. (14.53 ticks)
CPLEX> MIP start file 'C:\Users\wenmi\Desktop\competitiveMPEC\logs\tmp5cipsbgb.cplex.mst' read.
CPLEX> Problem name         : C:\Users\wenmi\Desktop\competitiveMPEC\logs\tmpqamxd_c_.pyomo.lp
Objective sense      : Maximize
Variables            :   54525  [Nneg: 1,  Box: 22720,  Free: 4464,
                                 Binary: 27340]
Objective nonzeros   :    9675
Linear constraints   :  123205  [Less: 41346,  Greater: 59096,  Equal: 22763]
  Nonzeros           :  291800
  RHS nonzeros       :   67490

Variables            : Min LB: -5000.000        Max UB: 1000000.       
Objective nonzeros   : Min   : 0.1000000        Max   : 799.1000       
Linear constraints   :
  Nonzeros           : Min   : 0.1000000        Max   : 1000000.       
  RHS nonzeros       : Min   : 0.1000000        Max   : 1000000.       
CPLEX> Version identifier: 12.10.0.0 | 2019-11-26 | 843d4de2ae
CPXPARAM_Parallel                                -1
CPXPARAM_Simplex_Tolerances_Feasibility          0.01
CPXPARAM_DetTimeLimit                            75000
CPXPARAM_MIP_Tolerances_MIPGap                   0.01
CPXPARAM_MIP_Tolerances_Integrality              1.0000000000000001e-09
Warning:  No solution found from 1 MIP starts.
Retaining values of one MIP start for possible repair.
Tried aggregator 3 times.
MIP Presolve eliminated 88615 rows and 19635 columns.
MIP Presolve added 3401 rows and 0 columns.
MIP Presolve modified 24906 coefficients.
Aggregator did 13015 substitutions.
Reduced MIP has 24976 rows, 21319 columns, and 71254 nonzeros.
Reduced MIP has 8419 binaries, 0 generals, 0 SOSs, and 0 indicators.
Presolve time = 0.17 sec. (171.76 ticks)
Probing fixed 376 vars, tightened 2833 bounds.
Probing time = 0.78 sec. (869.53 ticks)
Tried aggregator 2 times.
Detecting symmetries...
MIP Presolve eliminated 851 rows and 753 columns.
MIP Presolve modified 2191 coefficients.
Aggregator did 42 substitutions.
Reduced MIP has 24083 rows, 20524 columns, and 68668 nonzeros.
Reduced MIP has 8043 binaries, 0 generals, 0 SOSs, and 0 indicators.
Presolve time = 0.06 sec. (71.57 ticks)
Probing time = 0.01 sec. (16.12 ticks)
Clique table members: 6413.
MIP emphasis: balance optimality and feasibility.
MIP search method: dynamic search.
Parallel mode: opportunistic, using up to 16 threads.
Root relaxation solution time = 0.22 sec. (213.35 ticks)

        Nodes                                         Cuts/
   Node  Left     Objective  IInf  Best Integer    Best Bound    ItCnt     Gap

      0     0   103649.6156  1683                 103649.6156     5373         
      0     0    99769.3193   594                   Cuts: 531     5678         
      0     0    99460.5091   532                   Cuts: 153     5785         
      0     0    99424.6033   522                   Cuts: 107     5834         
      0     0    99383.1732   474                    Cuts: 91     5882         
      0     0    99383.1732   463                    Cuts: 79     5920         
      0     0    95664.0263   430                    Cuts: 62     6062         
      0     0    90526.0302   441                    Cuts: 63     6189         
      0     0    89812.7429   421                    Cuts: 61     6257         
      0     0    89758.2643   424                    Cuts: 37     6283         
      0     0    89758.2643   420                    Cuts: 25     6291         
      0     0    87015.3660   414                    Cuts: 30     6330         
      0     0    87015.3660   408                    Cuts: 27     6341         
Repair heuristic found nothing.
      0     2    87015.3660   408                  86990.0680     6341         
Elapsed time = 10.45 sec. (7597.81 ticks, tree = 0.02 MB, solutions = 0)
    216    44    infeasible                        31125.3114     8278         
    496   133     4912.5108   324                  31125.3114    12517         
    804   314    -4138.8580   270                  31125.3114    14648         
   1384   937   -16206.7232   276                  31125.3114    15448         
   1846  1116    -5108.9721   256                  31125.3114    15920         
   2300  1663    -4138.8580   256                  31125.3114    17166         
   2734  2030   -18317.6338   247                  31125.3114    17205         
   3212  2261   -31137.2092   229                  31125.3114    17923         
*  3555+ 2934                       -18690.1899    31125.3114           266.53%
*  4362  3029      integral     0    -6414.9313    31125.3114    21743  585.20%
Elapsed time = 19.55 sec. (10076.44 ticks, tree = 25.00 MB, solutions = 5)

Performing restart 1

Repeating presolve.
Tried aggregator 3 times.
MIP Presolve eliminated 751 rows and 668 columns.
MIP Presolve modified 7641 coefficients.
Aggregator did 178 substitutions.
Reduced MIP has 23154 rows, 19678 columns, and 63412 nonzeros.
Reduced MIP has 7709 binaries, 0 generals, 0 SOSs, and 0 indicators.
Presolve time = 0.06 sec. (63.47 ticks)
Tried aggregator 2 times.
MIP Presolve eliminated 360 rows and 290 columns.
MIP Presolve modified 421 coefficients.
Aggregator did 7 substitutions.
Reduced MIP has 22787 rows, 19381 columns, and 62366 nonzeros.
Reduced MIP has 7564 binaries, 0 generals, 0 SOSs, and 0 indicators.
Presolve time = 0.03 sec. (42.46 ticks)
Tried aggregator 2 times.
MIP Presolve eliminated 52 rows and 52 columns.
MIP Presolve modified 232 coefficients.
Aggregator did 13 substitutions.
Reduced MIP has 22722 rows, 19316 columns, and 62171 nonzeros.
Reduced MIP has 7538 binaries, 0 generals, 0 SOSs, and 0 indicators.
Presolve time = 0.05 sec. (64.83 ticks)
Represolve time = 1.33 sec. (1147.97 ticks)
   4711     0    24817.3439   384    -6414.9313     Cuts: 731    28691  486.87%
   4711     0    23048.2409   120    -6414.9313    Cuts: 2233    29152  346.00%
   4711     0    22952.7378    63    -6414.9313     Cuts: 695    29293  346.00%
   4711     0    22942.5521    50    -6414.9313     Cuts: 125    29346  346.00%
   4711     0    22925.1587    55    -6414.9313      Cuts: 53    29371  346.00%
   4711     0    22914.3716    51    -6414.9313      Cuts: 43    29380  346.00%
   4711     0    21856.5481    54    -6414.9313      Cuts: 41    29430  346.00%
   4711     0    21629.9220    53    -6414.9313      Cuts: 68    29467  346.00%
   4711     0    21603.8654    54    -6414.9313      Cuts: 50    29491  346.00%
   4711     6        cutoff          -6414.9313    15780.4125    29647  346.00%
*  5038    39      integral     0     2788.8211     6393.7830    31477  129.26%
   5042    43     1461.0312    19     2788.8211     6393.7830    31469  129.26%
   5400    64     3097.3930     7     3097.3930     5391.1217    31645   74.05%

Cover cuts applied:  3
Implied bound cuts applied:  18
Flow cuts applied:  263
Mixed integer rounding cuts applied:  14
Gomory fractional cuts applied:  46

Root node processing (before b&c):
  Real time             =    9.45 sec. (7550.32 ticks)
Parallel b&c, 16 threads:
  Real time             =   22.31 sec. (10229.34 ticks)
  Sync time (average)   =    2.09 sec.
  Wait time (average)   =    0.04 sec.
                          ------------
Total (root+branch&cut) =   31.77 sec. (17779.66 ticks)

Solution pool: 10 solutions saved.

MIP - Integer optimal, tolerance (0.01/1e-06):  Objective =  3.0973929793e+03
Current MIP best bound =  3.1147374026e+03 (gap = 17.3444, 0.56%)
Solution time =   31.77 sec.  Iterations = 33945  Nodes = 5405 (8)
Deterministic time = 17779.82 ticks  (559.71 ticks/sec)

CPLEX> Incumbent solution written to file 'C:\Users\wenmi\Desktop\competitiveMPEC\logs\tmp5ubh3dtm.cplex.sol'.
CPLEX> Exporting results... 
